c --- [ banner ] -------------------------------------------------------------
c 
c CaDiCaL Radically Simplified CDCL SAT Solver
c Copyright (c) 2016-2021 A. Biere, M. Fleury, N. Froleyks
c 
c Version 1.5.2 9c38a080b32c28d805e8e6ca21849856b0cda605
c g++ (Ubuntu 7.5.0-3ubuntu1~18.04) 7.5.0 -Wall -Wextra -O3 -DNDEBUG
c Wed Feb 16 23:15:36 EST 2022 Linux fac-vanhoeve01 5.4.0-99-generic x86_64
c 
c --- [ limit ] --------------------------------------------------------------
c 
c setting time limit to 600 seconds real time (due to '-t 600')
c setting conflict limit to 1000000000 conflicts (due to '1000000000')
c 
c --- [ parsing input ] ------------------------------------------------------
c 
c reading DIMACS file from 'ddfwcnfs/wap07a.col_40.cnf'
c opening file to read 'ddfwcnfs/wap07a.col_40.cnf'
c found 'p cnf 72360 3903769' header
c parsed 3903769 clauses in 2.37 seconds process time
c closing file 'ddfwcnfs/wap07a.col_40.cnf'
c after reading 62064102 bytes 59.2 MB
c 
c --- [ options ] ------------------------------------------------------------
c 
c all options are set to their default value
c 
c --- [ solving ] ------------------------------------------------------------
c 
c time measured in process time since initialization
c 
c  seconds   reductions  redundant   irredundant
c          MB    restarts       trail        variables
c           level   conflicts       glue          remaining
c 
c *  2.37 337  0 0   0    0    0  0% 0 3897796 70437 97%
c {  2.40 338  0 0   0    0    0  0% 0 3897796 70437 97%
c -  3.15 338 36 1   9  300  237 13% 25 3864379 70437 97%
c }  3.28 338 34 1  57 1001  621 12% 28 3864379 70437 97%
c [  3.28 338  0 1  57 1001  621  0% 0 3864379 70437 97%
c O  3.29 338 38 1  57 1002  622  4% 38 3864379 70437 97%
c -  5.22 427 41 2  57 1852  863  5% 38 3864379 70437 97%
c ]  5.32 427 45 2  58 3003 1804  5% 41 3864379 70437 97%
c {  5.32 427 34 2  58 3003 1804 12% 28 3864379 70437 97%
c F  5.32 427 34 2  58 3004 1805 12% 28 3864379 70437 97%
c -  6.85 427 69 3 337 4180 1618 12% 32 3864379 70437 97%
c # 10.31 426 55 3 561 6005 2370 12% 34 3864379 70437 97%
c } 10.42 426 53 3 578 7003 3006 12% 35 3864379 70437 97%
c [ 10.42 426 45 3 578 7003 3006  5% 41 3864379 70437 97%
c - 11.81 426 47 4 579 7284 2028  5% 41 3864379 70437 97%
c I 12.05 426 54 4 580 10007 3956  5% 41 3864379 70437 97%
c - 13.51 426 586 5 581 11164 3340  8% 40 3864379 70437 97%
c s 14.91 440 911 5 582 11581 3519 10% 42 3864379 70437 97%
c e 22.86 441 911 5 582 11581  421 10% 42 3268041 64185 89%
c s 24.27 463 911 5 582 11581  420 10% 42 3268041 64185 89%
c 
c  seconds    reductions   redundant    irredundant
c          MB     restarts        trail         variables
c            level    conflicts       glue           remaining
c 
c ^ 25.00 463 911 5 582 11581  420 10% 42 3268041 64185 89%
c ] 30.86 451 960 5 583 15003 3198 38% 53 3268041 64185 89%
c { 30.86 451 53 5 583 15003 3198 14% 35 3268041 64185 89%
c B 30.88 451 54 5 585 15008 3203 14% 35 3268041 64185 89%
c - 32.34 452 62 6 616 15821 3652 13% 34 3268041 64185 89%
c W 34.09 452 51 6 616 21010 7525  9% 29 3268041 64185 89%
c - 35.40 452 53 7 634 21104 4970  9% 29 3268041 64185 89%
c - 37.13 452 47 8 2168 27138 3121  8% 31 3268041 64185 89%
c F 37.22 452 47 8 2363 28012 3390  8% 32 3268041 64185 89%
c } 40.77 452 45 8 2463 31003 5103  9% 32 3268041 64185 89%
c [ 40.77 452 960 8 2463 31003 5103 38% 53 3268041 64185 89%
c - 42.41 453 769 9 2464 33927 5384 32% 57 3268041 64185 89%
c s 42.59 453 751 9 2464 34266 5657 32% 58 3268041 64185 89%
c s 48.52 453 751 9 2464 34266 5654 32% 58 3268041 64185 89%
c ^ 49.19 453 751 9 2464 34266 5654 32% 58 3268041 64185 89%
c B 49.41 453 666 9 2466 36013 7126 28% 57 3268041 64185 89%
c - 52.12 455 647 10 2469 41469 7975 26% 77 3268041 64185 89%
c W 54.45 455 566 10 2470 45014 10773 24% 82 3268041 64185 89%
c - 56.41 454 485 11 2471 49767 8649 21% 84 3268041 64185 89%
c O 60.40 454 423 11 2472 55016 12715 19% 84 3268041 64185 89%
c 
c  seconds    reductions     redundant    irredundant
c          MB      restarts         trail         variables
c            level      conflicts       glue           remaining
c 
c - 62.03 454 378 12 2475 58819 9437 18% 79 3268041 64185 89%
c ] 62.46 454 338 12 2478 63003 12061 16% 74 3268041 64185 89%
c { 62.46 454 45 12 2478 63003 12061  9% 32 3268041 64185 89%
c B 62.74 454 47 12 2480 66017 14411  9% 32 3268041 64185 89%
c s 63.25 454 47 12 2982 68287 15073  9% 32 3268041 64185 89%
c s 69.31 454 47 12 2982 68287 14740  9% 32 3268041 64185 89%
c ^ 69.99 454 47 12 2982 68287 14740  9% 32 3268041 64185 89%
c - 71.36 453 47 13 2996 68628 8804  9% 32 3268041 64185 89%
c W 77.64 453 45 13 3662 78019 13021  9% 33 3268041 64185 89%
c - 79.30 452 47 14 3834 79190 7118  9% 34 3268041 64185 89%
c - 81.61 453 45 15 4456 90505 7717  9% 35 3268041 64185 89%
c # 81.67 453 45 15 4464 91025 7995  9% 35 3268041 64185 89%
c - 83.92 453 43 16 4484 102573 9410  9% 34 3268041 64185 89%
c B 87.47 453 42 16 4484 105026 10834  9% 34 3268041 64185 89%
c s 89.05 453 44 16 5218 113648 11558  9% 35 3268041 64185 89%
c s 95.15 453 44 16 5218 113648 10736  9% 35 3268041 64185 89%
c ^ 95.83 453 44 16 5218 113648 10736  9% 35 3268041 64185 89%
c - 97.30 453 44 17 5299 115396 7213  9% 35 3268041 64185 89%
c W 100.79 453 43 17 5459 120028 9218  9% 35 3268041 64185 89%
c } 101.48 453 43 17 5678 127005 12392  9% 35 3268041 64185 89%
c 
c  seconds     reductions       redundant    irredundant
c           MB      restarts           trail         variables
c             level      conflicts         glue           remaining
c 
c [ 101.48 453 338 17 5678 127005 12392 16% 74 3268041 64185 89%
c - 102.97 453 323 18 5678 128973 8734 16% 72 3268041 64185 89%
c B 103.76 453 276 18 5683 136029 13544 14% 67 3268041 64185 89%
c - 110.52 457 766 19 5686 143307 13693 18% 82 3268041 64185 89%
c W 116.77 457 729 19 5687 153030 21605 21% 89 3268041 64185 89%
c - 119.16 459 817 20 5687 158392 15401 21% 90 3268041 64185 89%
c s 121.85 459 897 20 5690 170351 23095 21% 95 3268041 64185 89%
c s 128.09 459 897 20 5690 170351 23087 21% 95 3268041 64185 89%
c ^ 128.78 459 897 20 5690 170351 23087 21% 95 3268041 64185 89%
c I 128.94 459 888 20 5690 171038 23608 20% 95 3268041 64185 89%
c - 131.01 459 1198 21 5693 174234 16212 21% 95 3268041 64185 89%
c B 136.34 459 955 21 5701 190039 28213 18% 88 3268041 64185 89%
c - 137.70 456 945 22 5701 190829 16792 18% 87 3268041 64185 89%
c - 141.60 456 757 23 5708 208177 18024 15% 80 3268041 64185 89%
c W 146.41 456 740 23 5709 210040 19396 15% 80 3268041 64185 89%
c - 153.67 456 611 24 5717 226279 19403 14% 73 3268041 64185 89%
c O 154.30 456 580 24 5717 231042 23128 13% 71 3268041 64185 89%
c s 155.08 456 531 24 5718 238393 27154 12% 67 3268041 64185 89%
c s 161.47 456 531 24 5718 238393 25627 12% 67 3268041 64185 89%
c - 163.99 454 490 25 5718 245137 16722 12% 64 3268041 64185 89%
c 
c  seconds     reductions       redundant    irredundant
c           MB      restarts           trail         variables
c             level      conflicts         glue           remaining
c 
c B 164.86 454 450 25 5719 253043 22362 11% 61 3268041 64185 89%
c ] 165.83 454 1059 25 5719 255006 24077 12% 68 3268041 64185 89%
c { 165.83 454 43 25 5719 255006 24077  9% 35 3268041 64185 89%
c - 168.17 457 44 26 5843 264749 18560  9% 35 3268041 64185 89%
c F 172.75 457 43 26 5923 276047 24846  8% 35 3268041 64185 89%
c - 174.93 454 42 27 5934 285116 17557  8% 35 3268041 64185 89%
c B 176.53 454 42 27 5993 300055 27448  8% 35 3268041 64185 89%
c - 178.61 455 43 28 6124 306238 18828  8% 35 3268041 64185 89%
c W 186.55 455 45 28 6302 325061 33026  8% 35 3268041 64185 89%
c - 188.17 456 46 29 6346 328112 21519  8% 35 3268041 64185 89%
c - 194.92 455 44 30 6388 350741 20131  8% 35 3268041 64185 89%
c # 194.97 455 44 30 6388 351062 20310  8% 35 3268041 64185 89%
c - 198.70 455 43 31 6437 374123 21583  8% 34 3268041 64185 89%
c B 199.10 455 43 31 6437 378064 24278  8% 34 3268041 64185 89%
c - 205.86 454 42 32 7554 398260 17583  8% 35 3268041 64185 89%
c W 213.67 454 41 32 7752 406065 21286  8% 35 3268041 64185 89%
c - 216.59 454 41 33 7940 423151 18768  8% 35 3268041 64185 89%
c F 217.70 454 40 33 7947 435066 25603  8% 34 3268041 64185 89%
c - 220.22 455 40 34 7956 448797 22653  8% 33 3268041 64185 89%
c B 225.41 455 39 34 7999 465068 33845  8% 33 3268041 64185 89%
c 
c  seconds    reductions        redundant    irredundant
c           MB      restarts           trail         variables
c            level       conflicts         glue           remaining
c 
c - 227.94 455 40 35 10112 475197 20828  8% 33 3268041 64185 89%
c W 237.85 455 39 35 12098 496072 28683  8% 34 3268041 64185 89%
c - 240.09 454 40 36 12642 502351 16014  8% 34 3268041 64185 89%
c } 240.96 454 40 36 13122 511007 20001  8% 35 3268041 64185 89%
c [ 240.96 454 1059 36 13122 511007 20001 12% 68 3268041 64185 89%
c W 254.71 454 958 36 13122 528073 31755 12% 65 3268041 64185 89%
c - 256.29 456 938 37 13122 530262 21715 12% 65 3268041 64185 89%
c - 261.27 458 799 38 13135 558925 26281 12% 62 3268041 64185 89%
c I 261.56 458 782 38 13136 561076 27811 12% 61 3268041 64185 89%
c - 269.52 466 1914 39 13147 588343 30654 16% 77 3268041 64185 89%
c B 270.90 466 1806 39 13151 595082 35869 16% 78 3268041 64185 89%
c - 281.69 468 3810 40 13153 618517 32376 20% 89 3268041 64185 89%
c W 294.48 468 4293 40 13159 630083 42115 22% 93 3268041 64185 89%
c - 298.86 465 3554 41 13168 649444 33820 21% 92 3268041 64185 89%
c s 299.07 465 3554 41 13168 649444 33371 21% 92 3268041 64185 89%
c w 302.55 465 3554 41 13168 649444 33358 21% 92 3268041 64185 89%
c O 305.99 465 3202 41 13175 666085 46587 21% 90 3268041 64185 89%
c - 312.70 461 2750 42 13183 681124 34890 19% 84 3268041 64185 89%
c B 315.63 461 2208 42 13184 703087 49411 17% 76 3268041 64185 89%
c - 318.84 460 2505 43 13185 713558 33673 19% 77 3268041 64185 89%
c 
c  seconds      reductions        redundant    irredundant
c           MB        restarts           trail         variables
c             level        conflicts         glue           remaining
c 
c W 335.14 460 2078 43 13186 741089 53692 23% 80 3268041 64185 89%
c - 337.37 462 1973 44 13186 746746 32947 23% 78 3268041 64185 89%
c I 345.94 462 1438 44 13186 780090 58607 20% 69 3268041 64185 89%
c - 347.99 462 1663 45 13186 780688 35107 21% 76 3268041 64185 89%
c - 378.33 538 8641 46 13193 815387 38991 30% 237 3268041 64185 89%
c B 379.19 538 8251 46 13196 820091 42681 29% 230 3268041 64185 89%
c - 386.02 464 6110 47 13209 850840 37791 24% 188 3268041 64185 89%
c W 404.19 464 5528 47 13215 861092 45602 23% 177 3268041 64185 89%
c - 412.03 469 5772 48 13217 887045 39746 24% 162 3268041 64185 89%
c O 415.23 469 5043 48 13227 903094 52847 24% 149 3268041 64185 89%
c - 419.36 463 4107 49 13235 924005 39908 21% 130 3268041 64185 89%
c B 422.91 463 3309 49 13247 946095 55789 19% 113 3268041 64185 89%
c - 434.00 468 3516 50 13248 961719 42414 21% 120 3268041 64185 89%
c W 455.19 468 2692 50 13249 990097 64276 21% 110 3268041 64185 89%
c - 458.27 466 3168 51 13249 1000188 41700 24% 106 3268041 64185 89%
c ] 463.75 466 2988 51 13262 1023007 59466 25% 106 3268041 64185 89%
c { 463.75 466 40 51 13262 1023007 59466  8% 35 3268041 64185 89%
c # 465.30 466 40 51 13545 1035101 65630  8% 35 3268041 64185 89%
c - 467.32 464 40 52 13549 1039411 38619  8% 35 3268041 64185 89%
c - 477.40 457 39 53 13672 1079390 33929  8% 35 3268041 64185 89%
c 
c  seconds    reductions         redundant    irredundant
c           MB      restarts            trail         variables
c            level        conflicts         glue           remaining
c 
c B 477.62 457 39 53 13672 1081103 34773  8% 35 3268041 64185 89%
c - 484.98 459 41 54 14110 1120122 39301  8% 35 3268041 64185 89%
c s 485.24 459 41 54 14110 1120122 39236  8% 35 3268041 64185 89%
c w 489.51 459 41 54 14110 1120122 39223  8% 35 3268041 64185 89%
c W 507.51 459 47 54 14300 1128105 45485  8% 35 3268041 64185 89%
c - 517.15 458 46 55 14732 1161608 36837  8% 35 3268041 64185 89%
c F 518.99 458 45 55 14833 1176106 44289  8% 35 3268041 64185 89%
c - 523.55 458 43 56 14902 1203849 37165  8% 34 3268041 64185 89%
c B 526.12 458 41 56 14966 1225107 52164  8% 34 3268041 64185 89%
c - 529.90 457 41 57 15533 1246845 35683  8% 34 3268041 64185 89%
c W 556.08 457 40 57 15900 1275112 50372  8% 34 3268041 64185 89%
c - 559.20 457 40 58 16078 1290595 32525  8% 34 3268041 64185 89%
c # 563.40 457 39 58 16422 1326114 50296  8% 35 3268041 64185 89%
c - 565.75 457 39 59 16453 1335099 32736  8% 35 3268041 64185 89%
c B 570.70 457 39 59 16855 1378115 59268  8% 35 3268041 64185 89%
c - 576.23 458 40 60 17392 1380357 36660  8% 35 3268041 64185 89%
c - 582.64 458 41 61 18186 1426370 38178  8% 35 3268041 64185 89%
c } 600.39 458 41 61 18203 1431117 41053  8% 35 3268041 64185 89%
c ? 600.39 458 41 61 18203 1431117 41053  8% 35 3268041 64185 89%
c 
c --- [ result ] -------------------------------------------------------------
c 
c UNKNOWN
c 
c --- [ run-time profiling ] -------------------------------------------------
c 
c process time taken by individual solving procedures
c (percentage relative to process time for solving)
c 
c       472.04   78.93% search
c       195.77   32.74% stable
c       147.27   24.63% walk
c       128.98   21.57% unstable
c       125.98   21.07% simplify
c        31.79    5.32% ternary
c        19.91    3.33% elim
c        19.21    3.21% vivify
c        16.83    2.81% probe
c         4.38    0.73% subsume
c         2.37    0.40% parse
c         0.03    0.01% lucky
c   =================================
c       598.02   99.61% solve
c 
c last line shows process time for solving
c (percentage relative to total process time)
c 
c --- [ statistics ] ---------------------------------------------------------
c 
c chronological:            252461        17.64 %  of conflicts
c conflicts:               1431117      2393.08    per second
c decisions:               2483177      4152.31    per second
c eliminated:                 6252         8.64 %  of all variables
c fixed:                      1923         2.66 %  of all variables
c learned:                 1415448        98.91 %  per conflict
c learned_lits:          197558082       100.00 %  learned literals
c minimized:                     0         0.00 %  learned literals
c shrunken:               71281899        36.08 %  learned literals
c minishrunken:            5865951         2.97 %  learned literals
c propagations:          540565370         0.90 M  per second
c reduced:                  916858        64.07 %  per conflict
c rephased:                     53     27002.21    interval
c restarts:                  18203        78.62    interval
c stabilizing:                   5        47.66 %  of conflicts
c subsumed:                 454401         4.22 %  of all clauses
c strengthened:              15987         0.15 %  of all clauses
c vivified:                     48         0.00 %  of all clauses
c walked:                       17     84183.35    interval
c weakened:                 670291         2.73    average size
c 
c seconds are measured in process time for solving
c 
c --- [ resources ] ----------------------------------------------------------
c 
c total process time since initialization:       600.39    seconds
c total real time since initialization:          600.48    seconds
c maximum resident set size of process:          633.96    MB
c 
c --- [ shutting down ] ------------------------------------------------------
c 
c exit 0
